5
30 50 60 40 0 20
40 80 20 40 0 0
40 50 20 0 0 0
20 70 10 40 0 80
10 10 30 40 0 90
3 4 5 1 2 
3 2 1 4 5 
4 5 1 2 3 
5
30 50 60 40 0 20
40 80 20 40 0 0
40 50 20 0 0 0
20 70 10 40 0 80
10 10 30 40 0 90
3 4 5 1 2 
3 2 1 4 5 
4 5 1 2 3 
